p cnf 430 1488
-191 22 0
-191 108 0
-191 -128 0
-191 -156 0
-191 -157 0
191 -22 -108 128 156 157 0
-192 131 0
-192 20 0
-192 32 0
-192 7 0
-192 135 0
192 -131 -20 -32 -7 -135 0
-193 -122 0
-193 5 0
-193 -38 0
-193 155 0
-193 -11 0
193 122 -5 38 -155 11 0
-194 -66 0
-194 48 0
-194 65 0
-194 187 0
-194 67 0
194 66 -48 -65 -187 -67 0
-195 -122 0
-195 156 0
-195 100 0
-195 -76 0
-195 -188 0
195 122 -156 -100 76 188 0
191 192 193 194 195 0
-196 -115 0
-196 -14 0
-196 85 0
-196 28 0
-196 107 0
196 115 14 -85 -28 -107 0
-197 -15 0
-197 -125 0
-197 135 0
-197 -87 0
-197 39 0
197 15 125 -135 87 -39 0
-198 -21 0
-198 73 0
-198 -136 0
-198 156 0
-198 18 0
198 21 -73 136 -156 -18 0
-199 -24 0
-199 126 0
-199 124 0
-199 139 0
-199 27 0
199 24 -126 -124 -139 -27 0
-200 -187 0
-200 -1 0
-200 80 0
-200 111 0
-200 131 0
200 187 1 -80 -111 -131 0
196 197 198 199 200 0
-201 163 0
-201 -23 0
-201 -182 0
-201 123 0
-201 100 0
201 -163 23 182 -123 -100 0
-202 70 0
-202 -81 0
-202 -178 0
-202 108 0
-202 -23 0
202 -70 81 178 -108 23 0
-203 29 0
-203 -111 0
-203 132 0
-203 -40 0
-203 -100 0
203 -29 111 -132 40 100 0
-204 -184 0
-204 -172 0
-204 89 0
-204 39 0
-204 183 0
204 184 172 -89 -39 -183 0
-205 -39 0
-205 -165 0
-205 -133 0
-205 52 0
-205 -178 0
205 39 165 133 -52 178 0
201 202 203 204 205 0
-206 6 0
-206 135 0
-206 131 0
-206 112 0
-206 144 0
206 -6 -135 -131 -112 -144 0
-207 -60 0
-207 151 0
-207 -177 0
-207 184 0
-207 -135 0
207 60 -151 177 -184 135 0
-208 14 0
-208 110 0
-208 -138 0
-208 149 0
-208 3 0
208 -14 -110 138 -149 -3 0
-209 -150 0
-209 29 0
-209 -59 0
-209 11 0
-209 1 0
209 150 -29 59 -11 -1 0
-210 136 0
-210 -113 0
-210 -83 0
-210 -121 0
-210 42 0
210 -136 113 83 121 -42 0
206 207 208 209 210 0
-211 142 0
-211 7 0
-211 -32 0
-211 -53 0
-211 -55 0
211 -142 -7 32 53 55 0
-212 27 0
-212 22 0
-212 185 0
-212 70 0
-212 -174 0
212 -27 -22 -185 -70 174 0
-213 -6 0
-213 -172 0
-213 3 0
-213 98 0
-213 54 0
213 6 172 -3 -98 -54 0
-214 50 0
-214 11 0
-214 68 0
-214 -123 0
-214 119 0
214 -50 -11 -68 123 -119 0
-215 40 0
-215 -20 0
-215 72 0
-215 -56 0
-215 -144 0
215 -40 20 -72 56 144 0
211 212 213 214 215 0
-216 -85 0
-216 79 0
-216 70 0
-216 103 0
-216 64 0
216 85 -79 -70 -103 -64 0
-217 -182 0
-217 -178 0
-217 37 0
-217 -110 0
-217 -75 0
217 182 178 -37 110 75 0
-218 71 0
-218 -151 0
-218 -146 0
-218 -38 0
-218 -190 0
218 -71 151 146 38 190 0
-219 -103 0
-219 189 0
-219 -147 0
-219 34 0
-219 -137 0
219 103 -189 147 -34 137 0
-220 -164 0
-220 174 0
-220 -49 0
-220 -65 0
-220 -42 0
220 164 -174 49 65 42 0
216 217 218 219 220 0
-221 74 0
-221 -116 0
-221 -81 0
-221 -36 0
-221 -88 0
221 -74 116 81 36 88 0
-222 -56 0
-222 90 0
-222 -136 0
-222 -128 0
-222 -10 0
222 56 -90 136 128 10 0
-223 161 0
-223 81 0
-223 -138 0
-223 -18 0
-223 -100 0
223 -161 -81 138 18 100 0
-224 75 0
-224 142 0
-224 149 0
-224 -105 0
-224 14 0
224 -75 -142 -149 105 -14 0
-225 113 0
-225 104 0
-225 172 0
-225 182 0
-225 -86 0
225 -113 -104 -172 -182 86 0
221 222 223 224 225 0
-226 113 0
-226 160 0
-226 178 0
-226 -2 0
-226 182 0
226 -113 -160 -178 2 -182 0
-227 154 0
-227 27 0
-227 141 0
-227 -157 0
-227 26 0
227 -154 -27 -141 157 -26 0
-228 -120 0
-228 165 0
-228 -187 0
-228 -123 0
-228 -51 0
228 120 -165 187 123 51 0
-229 -105 0
-229 -73 0
-229 141 0
-229 -174 0
-229 90 0
229 105 73 -141 174 -90 0
-230 -105 0
-230 -28 0
-230 -163 0
-230 -79 0
-230 21 0
230 105 28 163 79 -21 0
226 227 228 229 230 0
-231 124 0
-231 167 0
-231 183 0
-231 -67 0
-231 -106 0
231 -124 -167 -183 67 106 0
-232 -30 0
-232 150 0
-232 35 0
-232 -171 0
-232 -175 0
232 30 -150 -35 171 175 0
-233 149 0
-233 165 0
-233 -33 0
-233 7 0
-233 -59 0
233 -149 -165 33 -7 59 0
-234 -135 0
-234 37 0
-234 181 0
-234 111 0
-234 156 0
234 135 -37 -181 -111 -156 0
-235 76 0
-235 -125 0
-235 -77 0
-235 118 0
-235 92 0
235 -76 125 77 -118 -92 0
231 232 233 234 235 0
-236 -70 0
-236 176 0
-236 -63 0
-236 -51 0
-236 59 0
236 70 -176 63 51 -59 0
-237 -153 0
-237 118 0
-237 -182 0
-237 -181 0
-237 174 0
237 153 -118 182 181 -174 0
-238 41 0
-238 -148 0
-238 -82 0
-238 -129 0
-238 49 0
238 -41 148 82 129 -49 0
-239 1 0
-239 -171 0
-239 -69 0
-239 -137 0
-239 182 0
239 -1 171 69 137 -182 0
-240 37 0
-240 -76 0
-240 97 0
-240 35 0
-240 -106 0
240 -37 76 -97 -35 106 0
236 237 238 239 240 0
-241 -165 0
-241 174 0
-241 119 0
-241 -25 0
-241 117 0
241 165 -174 -119 25 -117 0
-242 -85 0
-242 54 0
-242 20 0
-242 -188 0
-242 -70 0
242 85 -54 -20 188 70 0
-243 39 0
-243 -37 0
-243 83 0
-243 110 0
-243 94 0
243 -39 37 -83 -110 -94 0
-244 -19 0
-244 121 0
-244 112 0
-244 154 0
-244 44 0
244 19 -121 -112 -154 -44 0
-245 60 0
-245 -103 0
-245 -184 0
-245 136 0
-245 -113 0
245 -60 103 184 -136 113 0
241 242 243 244 245 0
-246 -104 0
-246 -60 0
-246 -73 0
-246 165 0
-246 -31 0
246 104 60 73 -165 31 0
-247 -3 0
-247 172 0
-247 -29 0
-247 9 0
-247 75 0
247 3 -172 29 -9 -75 0
-248 49 0
-248 -77 0
-248 -70 0
-248 123 0
-248 -118 0
248 -49 77 70 -123 118 0
-249 -22 0
-249 3 0
-249 107 0
-249 -112 0
-249 57 0
249 22 -3 -107 112 -57 0
-250 29 0
-250 -128 0
-250 -147 0
-250 -9 0
-250 -185 0
250 -29 128 147 9 185 0
246 247 248 249 250 0
-251 19 0
-251 136 0
-251 92 0
-251 -167 0
-251 -154 0
251 -19 -136 -92 167 154 0
-252 -44 0
-252 116 0
-252 148 0
-252 -62 0
-252 111 0
252 44 -116 -148 62 -111 0
-253 9 0
-253 152 0
-253 -182 0
-253 -117 0
-253 173 0
253 -9 -152 182 117 -173 0
-254 7 0
-254 -65 0
-254 -146 0
-254 -6 0
-254 -3 0
254 -7 65 146 6 3 0
-255 81 0
-255 -79 0
-255 167 0
-255 8 0
-255 -175 0
255 -81 79 -167 -8 175 0
251 252 253 254 255 0
-256 -120 0
-256 -151 0
-256 -70 0
-256 156 0
-256 -176 0
256 120 151 70 -156 176 0
-257 58 0
-257 -142 0
-257 -109 0
-257 2 0
-257 -185 0
257 -58 142 109 -2 185 0
-258 14 0
-258 95 0
-258 -103 0
-258 -98 0
-258 186 0
258 -14 -95 103 98 -186 0
-259 -33 0
-259 36 0
-259 -43 0
-259 138 0
-259 -117 0
259 33 -36 43 -138 117 0
-260 -31 0
-260 -108 0
-260 61 0
-260 -158 0
-260 -101 0
260 31 108 -61 158 101 0
256 257 258 259 260 0
-261 57 0
-261 -23 0
-261 -82 0
-261 -105 0
-261 165 0
261 -57 23 82 105 -165 0
-262 90 0
-262 -70 0
-262 172 0
-262 19 0
-262 122 0
262 -90 70 -172 -19 -122 0
-263 -21 0
-263 125 0
-263 -41 0
-263 -176 0
-263 59 0
263 21 -125 41 176 -59 0
-264 -183 0
-264 34 0
-264 32 0
-264 52 0
-264 133 0
264 183 -34 -32 -52 -133 0
-265 77 0
-265 -86 0
-265 -58 0
-265 -166 0
-265 118 0
265 -77 86 58 166 -118 0
261 262 263 264 265 0
-266 119 0
-266 -95 0
-266 -80 0
-266 -7 0
-266 -107 0
266 -119 95 80 7 107 0
-267 68 0
-267 -122 0
-267 -109 0
-267 41 0
-267 22 0
267 -68 122 109 -41 -22 0
-268 -14 0
-268 134 0
-268 124 0
-268 1 0
-268 8 0
268 14 -134 -124 -1 -8 0
-269 -10 0
-269 -165 0
-269 -61 0
-269 42 0
-269 70 0
269 10 165 61 -42 -70 0
-270 124 0
-270 88 0
-270 38 0
-270 -187 0
-270 -181 0
270 -124 -88 -38 187 181 0
266 267 268 269 270 0
-271 115 0
-271 46 0
-271 -35 0
-271 65 0
-271 -23 0
271 -115 -46 35 -65 23 0
-272 -150 0
-272 -83 0
-272 -2 0
-272 -170 0
-272 -63 0
272 150 83 2 170 63 0
-273 5 0
-273 65 0
-273 146 0
-273 -33 0
-273 72 0
273 -5 -65 -146 33 -72 0
-274 -124 0
-274 121 0
-274 111 0
-274 -144 0
-274 166 0
274 124 -121 -111 144 -166 0
-275 -144 0
-275 -120 0
-275 60 0
-275 -48 0
-275 61 0
275 144 120 -60 48 -61 0
271 272 273 274 275 0
-276 -55 0
-276 68 0
-276 -120 0
-276 -76 0
-276 106 0
276 55 -68 120 76 -106 0
-277 -139 0
-277 -149 0
-277 -119 0
-277 -56 0
-277 -61 0
277 139 149 119 56 61 0
-278 27 0
-278 -172 0
-278 -7 0
-278 -169 0
-278 55 0
278 -27 172 7 169 -55 0
-279 64 0
-279 136 0
-279 -141 0
-279 152 0
-279 43 0
279 -64 -136 141 -152 -43 0
-280 -83 0
-280 -155 0
-280 -160 0
-280 178 0
-280 -113 0
280 83 155 160 -178 113 0
276 277 278 279 280 0
-281 107 0
-281 -178 0
-281 -83 0
-281 143 0
-281 -164 0
281 -107 178 83 -143 164 0
-282 -190 0
-282 -63 0
-282 -33 0
-282 -99 0
-282 186 0
282 190 63 33 99 -186 0
-283 42 0
-283 84 0
-283 -87 0
-283 50 0
-283 165 0
283 -42 -84 87 -50 -165 0
-284 103 0
-284 -114 0
-284 -134 0
-284 137 0
-284 164 0
284 -103 114 134 -137 -164 0
-285 -136 0
-285 123 0
-285 144 0
-285 102 0
-285 84 0
285 136 -123 -144 -102 -84 0
281 282 283 284 285 0
-286 14 0
-286 95 0
-286 157 0
-286 -29 0
-286 58 0
286 -14 -95 -157 29 -58 0
-287 -77 0
-287 99 0
-287 84 0
-287 23 0
-287 -24 0
287 77 -99 -84 -23 24 0
-288 72 0
-288 3 0
-288 -119 0
-288 -11 0
-288 -181 0
288 -72 -3 119 11 181 0
-289 98 0
-289 -84 0
-289 -109 0
-289 -88 0
-289 -143 0
289 -98 84 109 88 143 0
-290 -146 0
-290 162 0
-290 -189 0
-290 -183 0
-290 -130 0
290 146 -162 189 183 130 0
286 287 288 289 290 0
-291 -148 0
-291 -187 0
-291 -51 0
-291 71 0
-291 -16 0
291 148 187 51 -71 16 0
-292 70 0
-292 -82 0
-292 -155 0
-292 55 0
-292 -163 0
292 -70 82 155 -55 163 0
-293 53 0
-293 -147 0
-293 -76 0
-293 55 0
-293 178 0
293 -53 147 76 -55 -178 0
-294 106 0
-294 157 0
-294 152 0
-294 65 0
-294 -136 0
294 -106 -157 -152 -65 136 0
-295 19 0
-295 83 0
-295 -56 0
-295 89 0
-295 75 0
295 -19 -83 56 -89 -75 0
291 292 293 294 295 0
-296 9 0
-296 96 0
-296 177 0
-296 -186 0
-296 149 0
296 -9 -96 -177 186 -149 0
-297 -30 0
-297 95 0
-297 10 0
-297 -53 0
-297 184 0
297 30 -95 -10 53 -184 0
-298 190 0
-298 157 0
-298 12 0
-298 -171 0
-298 31 0
298 -190 -157 -12 171 -31 0
-299 -23 0
-299 78 0
-299 -152 0
-299 172 0
-299 142 0
299 23 -78 152 -172 -142 0
-300 -163 0
-300 8 0
-300 148 0
-300 -79 0
-300 -66 0
300 163 -8 -148 79 66 0
296 297 298 299 300 0
-301 148 0
-301 115 0
-301 -140 0
-301 136 0
-301 -82 0
301 -148 -115 140 -136 82 0
-302 173 0
-302 -111 0
-302 93 0
-302 188 0
-302 160 0
302 -173 111 -93 -188 -160 0
-303 93 0
-303 -54 0
-303 -127 0
-303 69 0
-303 -122 0
303 -93 54 127 -69 122 0
-304 -116 0
-304 -12 0
-304 -24 0
-304 -66 0
-304 -144 0
304 116 12 24 66 144 0
-305 -181 0
-305 27 0
-305 120 0
-305 162 0
-305 47 0
305 181 -27 -120 -162 -47 0
301 302 303 304 305 0
-306 183 0
-306 52 0
-306 58 0
-306 169 0
-306 -54 0
306 -183 -52 -58 -169 54 0
-307 9 0
-307 -17 0
-307 15 0
-307 -145 0
-307 181 0
307 -9 17 -15 145 -181 0
-308 -113 0
-308 120 0
-308 79 0
-308 -134 0
-308 36 0
308 113 -120 -79 134 -36 0
-309 23 0
-309 -10 0
-309 -133 0
-309 -101 0
-309 -8 0
309 -23 10 133 101 8 0
-310 180 0
-310 -66 0
-310 -161 0
-310 159 0
-310 24 0
310 -180 66 161 -159 -24 0
306 307 308 309 310 0
-311 78 0
-311 24 0
-311 -87 0
-311 181 0
-311 97 0
311 -78 -24 87 -181 -97 0
-312 -109 0
-312 169 0
-312 11 0
-312 46 0
-312 40 0
312 109 -169 -11 -46 -40 0
-313 -34 0
-313 150 0
-313 97 0
-313 -39 0
-313 -85 0
313 34 -150 -97 39 85 0
-314 3 0
-314 167 0
-314 183 0
-314 -132 0
-314 19 0
314 -3 -167 -183 132 -19 0
-315 149 0
-315 190 0
-315 -179 0
-315 -32 0
-315 -166 0
315 -149 -190 179 32 166 0
311 312 313 314 315 0
-316 120 0
-316 16 0
-316 -57 0
-316 -146 0
-316 178 0
316 -120 -16 57 146 -178 0
-317 128 0
-317 142 0
-317 -167 0
-317 31 0
-317 168 0
317 -128 -142 167 -31 -168 0
-318 -94 0
-318 57 0
-318 -39 0
-318 -187 0
-318 12 0
318 94 -57 39 187 -12 0
-319 -117 0
-319 -80 0
-319 -113 0
-319 -35 0
-319 166 0
319 117 80 113 35 -166 0
-320 -103 0
-320 -131 0
-320 61 0
-320 -43 0
-320 -173 0
320 103 131 -61 43 173 0
316 317 318 319 320 0
-321 -86 0
-321 -92 0
-321 -27 0
-321 -51 0
-321 -95 0
321 86 92 27 51 95 0
-322 -71 0
-322 140 0
-322 101 0
-322 119 0
-322 -79 0
322 71 -140 -101 -119 79 0
-323 146 0
-323 10 0
-323 26 0
-323 -173 0
-323 177 0
323 -146 -10 -26 173 -177 0
-324 160 0
-324 -103 0
-324 -147 0
-324 90 0
-324 -43 0
324 -160 103 147 -90 43 0
-325 119 0
-325 -30 0
-325 -87 0
-325 151 0
-325 -21 0
325 -119 30 87 -151 21 0
321 322 323 324 325 0
-326 -183 0
-326 76 0
-326 -98 0
-326 81 0
-326 6 0
326 183 -76 98 -81 -6 0
-327 25 0
-327 123 0
-327 118 0
-327 -55 0
-327 -100 0
327 -25 -123 -118 55 100 0
-328 18 0
-328 177 0
-328 -135 0
-328 -74 0
-328 25 0
328 -18 -177 135 74 -25 0
-329 38 0
-329 -121 0
-329 2 0
-329 90 0
-329 130 0
329 -38 121 -2 -90 -130 0
-330 -20 0
-330 171 0
-330 -183 0
-330 -13 0
-330 -138 0
330 20 -171 183 13 138 0
326 327 328 329 330 0
-331 169 0
-331 90 0
-331 -113 0
-331 -107 0
-331 51 0
331 -169 -90 113 107 -51 0
-332 -37 0
-332 -187 0
-332 -53 0
-332 -3 0
-332 96 0
332 37 187 53 3 -96 0
-333 189 0
-333 1 0
-333 158 0
-333 -55 0
-333 -42 0
333 -189 -1 -158 55 42 0
-334 9 0
-334 -11 0
-334 -94 0
-334 -2 0
-334 86 0
334 -9 11 94 2 -86 0
-335 -138 0
-335 -69 0
-335 -92 0
-335 -98 0
-335 121 0
335 138 69 92 98 -121 0
331 332 333 334 335 0
-336 155 0
-336 -169 0
-336 81 0
-336 -144 0
-336 -51 0
336 -155 169 -81 144 51 0
-337 -85 0
-337 -64 0
-337 74 0
-337 70 0
-337 150 0
337 85 64 -74 -70 -150 0
-338 59 0
-338 66 0
-338 -181 0
-338 79 0
-338 60 0
338 -59 -66 181 -79 -60 0
-339 102 0
-339 -90 0
-339 -89 0
-339 -40 0
-339 -168 0
339 -102 90 89 40 168 0
-340 -75 0
-340 -172 0
-340 106 0
-340 -110 0
-340 -58 0
340 75 172 -106 110 58 0
336 337 338 339 340 0
-341 82 0
-341 48 0
-341 -164 0
-341 33 0
-341 -7 0
341 -82 -48 164 -33 7 0
-342 72 0
-342 144 0
-342 121 0
-342 51 0
-342 109 0
342 -72 -144 -121 -51 -109 0
-343 125 0
-343 -39 0
-343 86 0
-343 -45 0
-343 96 0
343 -125 39 -86 45 -96 0
-344 -6 0
-344 105 0
-344 -101 0
-344 16 0
-344 -128 0
344 6 -105 101 -16 128 0
-345 -190 0
-345 166 0
-345 54 0
-345 -86 0
-345 188 0
345 190 -166 -54 86 -188 0
341 342 343 344 345 0
-346 17 0
-346 179 0
-346 -77 0
-346 72 0
-346 -48 0
346 -17 -179 77 -72 48 0
-347 87 0
-347 14 0
-347 77 0
-347 -140 0
-347 -98 0
347 -87 -14 -77 140 98 0
-348 72 0
-348 64 0
-348 -23 0
-348 91 0
-348 95 0
348 -72 -64 23 -91 -95 0
-349 -113 0
-349 15 0
-349 152 0
-349 112 0
-349 -75 0
349 113 -15 -152 -112 75 0
-350 -3 0
-350 136 0
-350 14 0
-350 -121 0
-350 -54 0
350 3 -136 -14 121 54 0
346 347 348 349 350 0
-351 -17 0
-351 36 0
-351 76 0
-351 155 0
-351 46 0
351 17 -36 -76 -155 -46 0
-352 -27 0
-352 -13 0
-352 34 0
-352 -111 0
-352 53 0
352 27 13 -34 111 -53 0
-353 24 0
-353 111 0
-353 -131 0
-353 66 0
-353 121 0
353 -24 -111 131 -66 -121 0
-354 39 0
-354 -84 0
-354 -122 0
-354 -18 0
-354 -76 0
354 -39 84 122 18 76 0
-355 -176 0
-355 99 0
-355 23 0
-355 2 0
-355 -4 0
355 176 -99 -23 -2 4 0
351 352 353 354 355 0
-356 181 0
-356 59 0
-356 -141 0
-356 -148 0
-356 35 0
356 -181 -59 141 148 -35 0
-357 172 0
-357 115 0
-357 129 0
-357 -101 0
-357 186 0
357 -172 -115 -129 101 -186 0
-358 180 0
-358 -98 0
-358 23 0
-358 -70 0
-358 -173 0
358 -180 98 -23 70 173 0
-359 79 0
-359 -70 0
-359 -66 0
-359 -15 0
-359 132 0
359 -79 70 66 15 -132 0
-360 66 0
-360 -104 0
-360 -116 0
-360 -99 0
-360 -158 0
360 -66 104 116 99 158 0
356 357 358 359 360 0
-361 -106 0
-361 -138 0
-361 151 0
-361 -100 0
-361 -4 0
361 106 138 -151 100 4 0
-362 -64 0
-362 8 0
-362 -183 0
-362 32 0
-362 -95 0
362 64 -8 183 -32 95 0
-363 -17 0
-363 7 0
-363 110 0
-363 -35 0
-363 -187 0
363 17 -7 -110 35 187 0
-364 -13 0
-364 -52 0
-364 38 0
-364 28 0
-364 99 0
364 13 52 -38 -28 -99 0
-365 170 0
-365 117 0
-365 28 0
-365 -35 0
-365 -161 0
365 -170 -117 -28 35 161 0
361 362 363 364 365 0
-366 -47 0
-366 -102 0
-366 -127 0
-366 91 0
-366 51 0
366 47 102 127 -91 -51 0
-367 64 0
-367 91 0
-367 27 0
-367 -58 0
-367 -39 0
367 -64 -91 -27 58 39 0
-368 1 0
-368 40 0
-368 -188 0
-368 71 0
-368 76 0
368 -1 -40 188 -71 -76 0
-369 -11 0
-369 127 0
-369 -110 0
-369 -141 0
-369 171 0
369 11 -127 110 141 -171 0
-370 97 0
-370 -57 0
-370 -133 0
-370 -187 0
-370 -23 0
370 -97 57 133 187 23 0
366 367 368 369 370 0
-371 66 0
-371 -83 0
-371 91 0
-371 -156 0
-371 -122 0
371 -66 83 -91 156 122 0
-372 152 0
-372 -184 0
-372 -170 0
-372 -5 0
-372 141 0
372 -152 184 170 5 -141 0
-373 -127 0
-373 -126 0
-373 34 0
-373 121 0
-373 -64 0
373 127 126 -34 -121 64 0
-374 -156 0
-374 75 0
-374 56 0
-374 -53 0
-374 23 0
374 156 -75 -56 53 -23 0
-375 33 0
-375 -153 0
-375 -65 0
-375 -131 0
-375 48 0
375 -33 153 65 131 -48 0
371 372 373 374 375 0
-376 -79 0
-376 -43 0
-376 182 0
-376 -19 0
-376 -15 0
376 79 43 -182 19 15 0
-377 -106 0
-377 82 0
-377 -19 0
-377 -151 0
-377 -176 0
377 106 -82 19 151 176 0
-378 129 0
-378 -174 0
-378 138 0
-378 142 0
-378 82 0
378 -129 174 -138 -142 -82 0
-379 127 0
-379 -38 0
-379 39 0
-379 85 0
-379 -83 0
379 -127 38 -39 -85 83 0
-380 -11 0
-380 132 0
-380 -29 0
-380 171 0
-380 -176 0
380 11 -132 29 -171 176 0
376 377 378 379 380 0
-381 -4 0
-381 40 0
-381 169 0
-381 23 0
-381 -187 0
381 4 -40 -169 -23 187 0
-382 -56 0
-382 52 0
-382 178 0
-382 59 0
-382 139 0
382 56 -52 -178 -59 -139 0
-383 97 0
-383 179 0
-383 81 0
-383 -138 0
-383 -49 0
383 -97 -179 -81 138 49 0
-384 145 0
-384 -5 0
-384 80 0
-384 68 0
-384 -158 0
384 -145 5 -80 -68 158 0
-385 101 0
-385 82 0
-385 152 0
-385 65 0
-385 -89 0
385 -101 -82 -152 -65 89 0
381 382 383 384 385 0
-386 -90 0
-386 150 0
-386 -156 0
-386 6 0
-386 69 0
386 90 -150 156 -6 -69 0
-387 84 0
-387 -76 0
-387 -38 0
-387 11 0
-387 7 0
387 -84 76 38 -11 -7 0
-388 64 0
-388 154 0
-388 135 0
-388 -145 0
-388 -4 0
388 -64 -154 -135 145 4 0
-389 151 0
-389 -97 0
-389 -116 0
-389 72 0
-389 84 0
389 -151 97 116 -72 -84 0
-390 -188 0
-390 -81 0
-390 -37 0
-390 149 0
-390 118 0
390 188 81 37 -149 -118 0
386 387 388 389 390 0
-391 -61 0
-391 132 0
-391 -95 0
-391 117 0
-391 -104 0
391 61 -132 95 -117 104 0
-392 -101 0
-392 58 0
-392 -114 0
-392 -26 0
-392 -159 0
392 101 -58 114 26 159 0
-393 144 0
-393 166 0
-393 151 0
-393 104 0
-393 -160 0
393 -144 -166 -151 -104 160 0
-394 -127 0
-394 -46 0
-394 137 0
-394 107 0
-394 -120 0
394 127 46 -137 -107 120 0
-395 71 0
-395 -74 0
-395 28 0
-395 -157 0
-395 43 0
395 -71 74 -28 157 -43 0
391 392 393 394 395 0
-396 151 0
-396 -33 0
-396 -89 0
-396 44 0
-396 -36 0
396 -151 33 89 -44 36 0
-397 -94 0
-397 -65 0
-397 170 0
-397 54 0
-397 28 0
397 94 65 -170 -54 -28 0
-398 158 0
-398 -87 0
-398 -124 0
-398 -173 0
-398 141 0
398 -158 87 124 173 -141 0
-399 -86 0
-399 141 0
-399 -3 0
-399 -175 0
-399 189 0
399 86 -141 3 175 -189 0
-400 -32 0
-400 179 0
-400 -156 0
-400 -158 0
-400 178 0
400 32 -179 156 158 -178 0
396 397 398 399 400 0
-401 -185 0
-401 87 0
-401 -102 0
-401 -19 0
-401 -123 0
401 185 -87 102 19 123 0
-402 -115 0
-402 108 0
-402 -141 0
-402 -73 0
-402 136 0
402 115 -108 141 73 -136 0
-403 -69 0
-403 -5 0
-403 17 0
-403 -79 0
-403 156 0
403 69 5 -17 79 -156 0
-404 139 0
-404 150 0
-404 42 0
-404 52 0
-404 63 0
404 -139 -150 -42 -52 -63 0
-405 174 0
-405 118 0
-405 46 0
-405 -16 0
-405 -134 0
405 -174 -118 -46 16 134 0
401 402 403 404 405 0
-406 117 0
-406 140 0
-406 -57 0
-406 151 0
-406 -152 0
406 -117 -140 57 -151 152 0
-407 111 0
-407 -48 0
-407 83 0
-407 -20 0
-407 17 0
407 -111 48 -83 20 -17 0
-408 6 0
-408 15 0
-408 49 0
-408 -158 0
-408 -126 0
408 -6 -15 -49 158 126 0
-409 -130 0
-409 164 0
-409 163 0
-409 -179 0
-409 14 0
409 130 -164 -163 179 -14 0
-410 90 0
-410 93 0
-410 4 0
-410 -178 0
-410 -35 0
410 -90 -93 -4 178 35 0
406 407 408 409 410 0
-411 -171 0
-411 -136 0
-411 55 0
-411 14 0
-411 -174 0
411 171 136 -55 -14 174 0
-412 -181 0
-412 -69 0
-412 -83 0
-412 81 0
-412 41 0
412 181 69 83 -81 -41 0
-413 84 0
-413 76 0
-413 74 0
-413 73 0
-413 -158 0
413 -84 -76 -74 -73 158 0
-414 -43 0
-414 -150 0
-414 30 0
-414 -163 0
-414 94 0
414 43 150 -30 163 -94 0
-415 145 0
-415 136 0
-415 140 0
-415 -174 0
-415 135 0
415 -145 -136 -140 174 -135 0
411 412 413 414 415 0
-416 35 0
-416 -44 0
-416 178 0
-416 129 0
-416 -162 0
416 -35 44 -178 -129 162 0
-417 111 0
-417 145 0
-417 82 0
-417 -43 0
-417 -124 0
417 -111 -145 -82 43 124 0
-418 110 0
-418 13 0
-418 183 0
-418 180 0
-418 -55 0
418 -110 -13 -183 -180 55 0
-419 144 0
-419 -184 0
-419 3 0
-419 -161 0
-419 -138 0
419 -144 184 -3 161 138 0
-420 46 0
-420 152 0
-420 -90 0
-420 112 0
-420 -24 0
420 -46 -152 90 -112 24 0
416 417 418 419 420 0
-421 -52 0
-421 -78 0
-421 -23 0
-421 46 0
-421 83 0
421 52 78 23 -46 -83 0
-422 -153 0
-422 -16 0
-422 -34 0
-422 190 0
-422 -106 0
422 153 16 34 -190 106 0
-423 37 0
-423 82 0
-423 -30 0
-423 93 0
-423 86 0
423 -37 -82 30 -93 -86 0
-424 -169 0
-424 -42 0
-424 97 0
-424 -154 0
-424 -36 0
424 169 42 -97 154 36 0
-425 -182 0
-425 -35 0
-425 92 0
-425 19 0
-425 -156 0
425 182 35 -92 -19 156 0
421 422 423 424 425 0
-426 23 0
-426 118 0
-426 -136 0
-426 170 0
-426 100 0
426 -23 -118 136 -170 -100 0
-427 161 0
-427 -142 0
-427 162 0
-427 -72 0
-427 -3 0
427 -161 142 -162 72 3 0
-428 -55 0
-428 -138 0
-428 -106 0
-428 156 0
-428 -103 0
428 55 138 106 -156 103 0
-429 -120 0
-429 45 0
-429 109 0
-429 -178 0
-429 -128 0
429 120 -45 -109 178 128 0
-430 184 0
-430 82 0
-430 -67 0
-430 148 0
-430 -93 0
430 -184 -82 67 -148 93 0
426 427 428 429 430 0
